p cnf 594 2031
c t mc
-1 2 -3 0
1 -2 -3 0
-1 -2 3 0
1 2 3 0
-6 -4 0
-6 -5 0
4 5 6 0
3 -6 -7 0
-3 6 -7 0
3 6 7 0
-3 -6 7 0
-9 -8 0
-9 -2 0
8 2 9 0
10 7 0
10 9 0
-7 -9 -10 0
-12 -10 0
-12 11 0
10 -11 12 0
15 -14 0
15 11 0
14 -11 -15 0
-17 -15 0
-17 16 0
15 -16 17 0
-17 18 -19 0
17 -18 -19 0
-17 -18 19 0
17 18 19 0
20 -13 0
20 -19 0
13 19 -20 0
21 -17 0
21 -19 0
17 19 -21 0
-20 21 -22 0
20 -21 -22 0
-20 -21 22 0
20 21 22 0
4 -14 -23 0
-4 14 -23 0
4 14 23 0
-4 -14 23 0
-9 -4 -25 0
9 4 -25 0
-9 4 25 0
9 -4 25 0
-24 -25 -26 0
24 25 -26 0
-24 25 26 0
24 -25 26 0
-23 -26 -27 0
23 26 -27 0
-23 26 27 0
23 -26 27 0
1 28 -29 0
-1 -28 -29 0
1 -28 29 0
-1 28 29 0
27 29 -30 0
-27 -29 -30 0
27 -29 30 0
-27 29 30 0
22 30 -31 0
-22 -30 -31 0
22 -30 31 0
-22 30 31 0
-15 33 -34 0
15 -33 -34 0
-15 -33 34 0
15 33 34 0
32 -34 -35 0
-32 34 -35 0
32 34 35 0
-32 -34 35 0
-37 5 -38 0
37 -5 -38 0
-37 -5 38 0
37 5 38 0
36 38 -39 0
-36 -38 -39 0
36 -38 39 0
-36 38 39 0
-40 4 0
-40 -23 0
-4 23 40 0
-41 39 0
-41 40 0
-39 -40 41 0
3 5 -43 0
-3 -5 -43 0
3 -5 43 0
-3 5 43 0
44 42 0
44 -43 0
-42 43 -44 0
44 -45 -46 0
-44 45 -46 0
44 45 46 0
-44 -45 46 0
-47 -46 0
-47 10 0
46 -10 47 0
-48 41 0
-48 -47 0
-41 47 48 0
49 37 0
49 32 0
-37 -32 -49 0
-15 -49 -50 0
15 49 -50 0
-15 49 50 0
15 -49 50 0
-51 -48 0
-51 50 0
48 -50 51 0
-52 -13 0
-52 -5 0
13 5 52 0
53 -17 0
53 -36 0
17 36 -53 0
-54 52 0
-54 53 0
-52 -53 54 0
-55 51 0
-55 -54 0
-51 54 55 0
-56 8 0
-56 55 0
-8 -55 56 0
-57 -35 0
-57 -56 0
35 56 57 0
-58 -31 0
-58 -57 0
31 57 58 0
-18 -28 -59 0
18 28 -59 0
-18 28 59 0
18 -28 59 0
62 -60 0
62 -61 0
60 61 -62 0
63 59 0
63 62 0
-59 -62 -63 0
-64 -63 0
-64 -50 0
63 50 64 0
65 58 0
65 64 0
-58 -64 -65 0
-12 65 -66 0
12 -65 -66 0
-12 -65 66 0
12 65 66 0
-68 -6 0
-68 -67 0
6 67 68 0
-68 -67 -69 0
68 67 -69 0
-68 67 69 0
68 -67 69 0
-3 -69 -70 0
3 69 -70 0
-3 69 70 0
3 -69 70 0
71 18 0
71 -70 0
-18 70 -71 0
72 8 0
72 -20 0
-8 20 -72 0
73 -72 0
73 -59 0
72 59 -73 0
-67 14 -74 0
67 -14 -74 0
-67 -14 74 0
67 14 74 0
-74 -43 -75 0
74 43 -75 0
-74 43 75 0
74 -43 75 0
76 73 0
76 -75 0
-73 75 -76 0
-77 -76 0
-77 -16 0
76 16 77 0
79 33 0
79 78 0
-33 -78 -79 0
16 -79 -80 0
-16 79 -80 0
16 79 80 0
-16 -79 80 0
8 80 -81 0
-8 -80 -81 0
8 -80 81 0
-8 80 81 0
-29 -68 -82 0
29 68 -82 0
-29 68 82 0
29 -68 82 0
83 81 0
83 -82 0
-81 82 -83 0
-83 -23 -84 0
83 23 -84 0
-83 23 84 0
83 -23 84 0
-85 -84 0
-85 -22 0
84 22 85 0
-86 79 0
-86 -78 0
-79 78 86 0
88 87 0
88 43 0
-87 -43 -88 0
-86 88 -89 0
86 -88 -89 0
-86 -88 89 0
86 88 89 0
90 -33 0
90 -89 0
33 89 -90 0
91 -35 0
91 90 0
35 -90 -91 0
29 69 -92 0
-29 -69 -92 0
29 -69 92 0
-29 69 92 0
93 -91 0
93 92 0
91 -92 -93 0
-85 -93 -94 0
85 93 -94 0
-85 93 94 0
85 -93 94 0
-81 40 -95 0
81 -40 -95 0
-81 -40 95 0
81 40 95 0
96 74 0
96 95 0
-74 -95 -96 0
72 -82 -97 0
-72 82 -97 0
72 82 97 0
-72 -82 97 0
5 97 -98 0
-5 -97 -98 0
5 -97 98 0
-5 97 98 0
96 -98 -99 0
-96 98 -99 0
96 98 99 0
-96 -98 99 0
86 -6 -100 0
-86 6 -100 0
86 6 100 0
-86 -6 100 0
-99 -100 -101 0
99 100 -101 0
-99 100 101 0
99 -100 101 0
-101 82 -102 0
101 -82 -102 0
-101 -82 102 0
101 82 102 0
-103 -14 0
-103 -79 0
14 79 103 0
-103 3 -104 0
103 -3 -104 0
-103 -3 104 0
103 3 104 0
-105 -104 0
-105 -11 0
104 11 105 0
106 105 0
106 -5 0
-105 5 -106 0
-107 102 0
-107 -106 0
-102 106 107 0
108 -94 0
108 -107 0
94 107 -108 0
-109 33 0
-109 -5 0
-33 5 109 0
111 -15 0
111 37 0
15 -37 -111 0
-112 110 0
-112 111 0
-110 -111 112 0
113 -112 0
113 15 0
112 -15 -113 0
109 113 -114 0
-109 -113 -114 0
109 -113 114 0
-109 113 114 0
-25 -83 -115 0
25 83 -115 0
-25 83 115 0
25 -83 115 0
-116 114 0
-116 -115 0
-114 115 116 0
-117 -41 0
-117 1 0
41 -1 117 0
67 117 -118 0
-67 -117 -118 0
67 -117 118 0
-67 117 118 0
119 -116 0
119 -118 0
116 118 -119 0
108 -119 -120 0
-108 119 -120 0
108 119 120 0
-108 -119 120 0
121 -11 0
121 -38 0
11 38 -121 0
122 -32 0
122 -23 0
32 23 -122 0
-123 95 0
-123 8 0
-95 -8 123 0
89 123 -124 0
-89 -123 -124 0
89 -123 124 0
-89 123 124 0
-122 124 -125 0
122 -124 -125 0
-122 -124 125 0
122 124 125 0
-126 121 0
-126 -125 0
-121 125 126 0
127 -120 0
127 -126 0
120 126 -127 0
-128 -36 0
-128 -9 0
36 9 128 0
-129 74 0
-129 -30 0
-74 30 129 0
-128 129 -130 0
128 -129 -130 0
-128 -129 130 0
128 129 130 0
127 130 -131 0
-127 -130 -131 0
127 -130 131 0
-127 130 131 0
132 -8 0
132 21 0
8 -21 -132 0
-133 -39 0
-133 -132 0
39 132 133 0
134 133 0
134 -39 0
-133 39 -134 0
-19 -1 -135 0
19 1 -135 0
-19 1 135 0
19 -1 135 0
137 28 0
137 -110 0
-28 110 -137 0
138 -136 0
138 137 0
136 -137 -138 0
135 -138 -139 0
-135 138 -139 0
135 138 139 0
-135 -138 139 0
-140 -139 0
-140 104 0
139 -104 140 0
-80 -61 -141 0
80 61 -141 0
-80 61 141 0
80 -61 141 0
142 140 0
142 -141 0
-140 141 -142 0
143 134 0
143 142 0
-134 -142 -143 0
-144 8 0
-144 -124 0
-8 124 144 0
-145 -82 0
-145 16 0
82 -16 145 0
36 -145 -146 0
-36 145 -146 0
36 145 146 0
-36 -145 146 0
-147 -144 0
-147 146 0
144 -146 147 0
51 147 -148 0
-51 -147 -148 0
51 -147 148 0
-51 147 148 0
-149 148 0
-149 -104 0
-148 104 149 0
150 -135 0
150 45 0
135 -45 -150 0
-151 149 0
-151 150 0
-149 -150 151 0
-143 151 -152 0
143 -151 -152 0
-143 -151 152 0
143 151 152 0
-153 -131 0
-153 152 0
131 -152 153 0
-154 77 0
-154 -153 0
-77 153 154 0
155 71 0
155 154 0
-71 -154 -155 0
156 -68 0
156 37 0
68 -37 -156 0
157 -36 0
157 -83 0
36 83 -157 0
156 -157 -158 0
-156 157 -158 0
156 157 158 0
-156 -157 158 0
-159 -158 0
-159 -36 0
158 36 159 0
44 1 -160 0
-44 -1 -160 0
44 -1 160 0
-44 1 160 0
49 28 -161 0
-49 -28 -161 0
49 -28 161 0
-49 28 161 0
162 -19 0
162 161 0
19 -161 -162 0
-163 1 0
-163 8 0
-1 -8 163 0
162 163 -164 0
-162 -163 -164 0
162 -163 164 0
-162 163 164 0
-89 -15 -165 0
89 15 -165 0
-89 15 165 0
89 -15 165 0
166 164 0
166 165 0
-164 -165 -166 0
-167 -32 0
-167 46 0
32 -46 167 0
-168 5 0
-168 33 0
-5 -33 168 0
168 -14 -169 0
-168 14 -169 0
168 14 169 0
-168 -14 169 0
-167 -169 -170 0
167 169 -170 0
-167 169 170 0
167 -169 170 0
-170 59 -171 0
170 -59 -171 0
-170 -59 171 0
170 59 171 0
-172 90 0
-172 -171 0
-90 171 172 0
173 -156 0
173 -172 0
156 172 -173 0
-166 -173 -174 0
166 173 -174 0
-166 173 174 0
166 -173 174 0
-175 160 0
-175 174 0
-160 -174 175 0
176 -105 0
176 59 0
105 -59 -176 0
-176 -6 -177 0
176 6 -177 0
-176 6 177 0
176 -6 177 0
-178 -14 0
-178 52 0
14 -52 178 0
-179 178 0
-179 -54 0
-178 54 179 0
180 -179 0
180 -44 0
179 44 -180 0
177 180 -181 0
-177 -180 -181 0
177 -180 181 0
-177 180 181 0
182 175 0
182 181 0
-175 -181 -182 0
-183 -159 0
-183 182 0
159 -182 183 0
184 18 0
184 25 0
-18 -25 -184 0
-185 -184 0
-185 -135 0
184 135 185 0
186 -88 0
186 -42 0
88 42 -186 0
-187 186 0
-187 105 0
-186 -105 187 0
188 185 0
188 -187 0
-185 187 -188 0
189 45 0
189 -87 0
-45 87 -189 0
-1 -28 -190 0
1 28 -190 0
-1 28 190 0
1 -28 190 0
191 190 0
191 -76 0
-190 76 -191 0
-192 -168 0
-192 29 0
168 -29 192 0
193 -191 0
193 192 0
191 -192 -193 0
-157 13 -194 0
157 -13 -194 0
-157 -13 194 0
157 13 194 0
-194 47 -195 0
194 -47 -195 0
-194 -47 195 0
194 47 195 0
196 -193 0
196 -195 0
193 195 -196 0
197 189 0
197 196 0
-189 -196 -197 0
198 188 0
198 197 0
-188 -197 -198 0
59 17 -199 0
-59 -17 -199 0
59 -17 199 0
-59 17 199 0
200 199 0
200 -1 0
-199 1 -200 0
-138 -168 -201 0
138 168 -201 0
-138 168 201 0
138 -168 201 0
-202 -29 0
-202 44 0
29 -44 202 0
201 202 -203 0
-201 -202 -203 0
201 -202 203 0
-201 202 203 0
23 93 -204 0
-23 -93 -204 0
23 -93 204 0
-23 93 204 0
-205 -112 0
-205 -204 0
112 204 205 0
203 205 -206 0
-203 -205 -206 0
203 -205 206 0
-203 205 206 0
200 206 -207 0
-200 -206 -207 0
200 -206 207 0
-200 206 207 0
-208 2 0
-208 -26 0
-2 26 208 0
-209 -208 0
-209 -63 0
208 63 209 0
209 -67 -210 0
-209 67 -210 0
209 67 210 0
-209 -67 210 0
-84 -92 -211 0
84 92 -211 0
-84 92 211 0
84 -92 211 0
212 -210 0
212 211 0
210 -211 -212 0
207 212 -213 0
-207 -212 -213 0
207 -212 213 0
-207 212 213 0
198 -213 -214 0
-198 213 -214 0
198 213 214 0
-198 -213 214 0
-215 183 0
-215 -214 0
-183 214 215 0
-216 -39 0
-216 -41 0
39 41 216 0
-216 -112 -217 0
216 112 -217 0
-216 112 217 0
216 -112 217 0
218 -217 0
218 -41 0
217 41 -218 0
-219 96 0
-219 -218 0
-96 218 219 0
220 -176 0
220 219 0
176 -219 -220 0
221 -28 0
221 28 0
7 96 -222 0
-7 -96 -222 0
7 -96 222 0
-7 96 222 0
-223 -217 0
-223 222 0
217 -222 223 0
-223 147 -224 0
223 -147 -224 0
-223 -147 224 0
223 147 224 0
225 43 0
225 -13 0
-43 13 -225 0
-225 -20 -226 0
225 20 -226 0
-225 20 226 0
225 -20 226 0
-227 224 0
-227 226 0
-224 -226 227 0
228 -221 0
228 -227 0
221 227 -228 0
45 -190 -229 0
-45 190 -229 0
45 190 229 0
-45 -190 229 0
-101 -229 -230 0
101 229 -230 0
-101 229 230 0
101 -229 230 0
228 230 -231 0
-228 -230 -231 0
228 -230 231 0
-228 230 231 0
220 -231 -232 0
-220 231 -232 0
220 231 232 0
-220 -231 232 0
-233 40 0
-233 -26 0
-40 26 233 0
234 87 0
234 -233 0
-87 233 -234 0
-210 59 -235 0
210 -59 -235 0
-210 -59 235 0
210 59 235 0
-236 234 0
-236 235 0
-234 -235 236 0
201 236 -237 0
-201 -236 -237 0
201 -236 237 0
-201 236 237 0
-50 49 -238 0
50 -49 -238 0
-50 -49 238 0
50 49 238 0
239 -238 0
239 104 0
238 -104 -239 0
-240 237 0
-240 -239 0
-237 239 240 0
241 105 0
241 -136 0
-105 136 -241 0
80 -43 -242 0
-80 43 -242 0
80 43 242 0
-80 -43 242 0
241 -242 -243 0
-241 242 -243 0
241 242 243 0
-241 -242 243 0
-62 -26 -244 0
62 26 -244 0
-62 26 244 0
62 -26 244 0
-245 -145 0
-245 244 0
145 -244 245 0
-243 -245 -246 0
243 245 -246 0
-243 245 246 0
243 -245 246 0
80 -246 -247 0
-80 246 -247 0
80 246 247 0
-80 -246 247 0
-248 -240 0
-248 -247 0
240 247 248 0
105 -23 -249 0
-105 23 -249 0
105 23 249 0
-105 -23 249 0
-82 242 -250 0
82 -242 -250 0
-82 -242 250 0
82 242 250 0
250 208 -251 0
-250 -208 -251 0
250 -208 251 0
-250 208 251 0
252 80 0
252 45 0
-80 -45 -252 0
-30 252 -253 0
30 -252 -253 0
-30 -252 253 0
30 252 253 0
16 -253 -254 0
-16 253 -254 0
16 253 254 0
-16 -253 254 0
-255 -251 0
-255 254 0
251 -254 255 0
-79 -37 -256 0
79 37 -256 0
-79 37 256 0
79 -37 256 0
257 46 0
257 -86 0
-46 86 -257 0
258 -256 0
258 257 0
256 -257 -258 0
259 255 0
259 258 0
-255 -258 -259 0
260 -22 0
260 8 0
22 -8 -260 0
-259 -260 -261 0
259 260 -261 0
-259 260 261 0
259 -260 261 0
262 249 0
262 -261 0
-249 261 -262 0
-248 -262 -263 0
248 262 -263 0
-248 262 263 0
248 -262 263 0
264 232 0
264 -263 0
-232 263 -264 0
-265 -215 0
-265 -264 0
215 264 265 0
-39 19 -266 0
39 -19 -266 0
-39 -19 266 0
39 19 266 0
267 -266 0
267 83 0
266 -83 -267 0
268 222 0
268 -256 0
-222 256 -268 0
-269 80 0
-269 -268 0
-80 268 269 0
270 267 0
270 269 0
-267 -269 -270 0
-271 1 0
-271 -22 0
-1 22 271 0
-246 -24 -272 0
246 24 -272 0
-246 24 272 0
246 -24 272 0
273 271 0
273 272 0
-271 -272 -273 0
-76 -100 -274 0
76 100 -274 0
-76 100 274 0
76 -100 274 0
275 274 0
275 225 0
-274 -225 -275 0
-276 273 0
-276 275 0
-273 -275 276 0
-277 270 0
-277 276 0
-270 -276 277 0
-278 -265 0
-278 -277 0
265 277 278 0
-279 -155 0
-279 278 0
155 -278 279 0
-280 66 0
-280 -279 0
-66 279 280 0
-281 254 0
-281 29 0
-254 -29 281 0
282 -281 0
282 103 0
281 -103 -282 0
-283 -92 0
-283 -282 0
92 282 283 0
14 190 -284 0
-14 -190 -284 0
14 -190 284 0
-14 190 284 0
-285 284 0
-285 -69 0
-284 69 285 0
-286 283 0
-286 -285 0
-283 285 286 0
-287 -36 0
-287 117 0
36 -117 287 0
-288 5 0
-288 -49 0
-5 49 288 0
-289 -161 0
-289 -2 0
161 2 289 0
290 -288 0
290 -289 0
288 289 -290 0
291 -13 0
291 290 0
13 -290 -291 0
292 -15 0
292 291 0
15 -291 -292 0
293 -287 0
293 -292 0
287 292 -293 0
-286 293 -294 0
286 -293 -294 0
-286 -293 294 0
286 293 294 0
-32 -15 -295 0
32 15 -295 0
-32 15 295 0
32 -15 295 0
-295 -62 -296 0
295 62 -296 0
-295 62 296 0
295 -62 296 0
-297 -296 0
-297 -284 0
296 284 297 0
-96 -297 -298 0
96 297 -298 0
-96 297 298 0
96 -297 298 0
-14 -298 -299 0
14 298 -299 0
-14 298 299 0
14 -298 299 0
300 -62 0
300 -148 0
62 148 -300 0
301 167 0
301 -300 0
-167 300 -301 0
-301 -27 -302 0
301 27 -302 0
-301 27 302 0
301 -27 302 0
-303 302 0
-303 -233 0
-302 233 303 0
-45 -28 -304 0
45 28 -304 0
-45 28 304 0
45 -28 304 0
-305 -96 0
-305 -7 0
96 7 305 0
306 304 0
306 305 0
-304 -305 -306 0
-307 306 0
-307 -48 0
-306 48 307 0
-308 307 0
-308 304 0
-307 -304 308 0
-309 308 0
-309 291 0
-308 -291 309 0
310 309 0
310 -234 0
-309 234 -310 0
311 303 0
311 310 0
-303 -310 -311 0
312 -299 0
312 -311 0
299 311 -312 0
-50 -298 -313 0
50 298 -313 0
-50 298 313 0
50 -298 313 0
314 -135 0
314 -219 0
135 219 -314 0
315 -313 0
315 -314 0
313 314 -315 0
312 -315 -316 0
-312 315 -316 0
312 315 316 0
-312 -315 316 0
317 294 0
317 316 0
-294 -316 -317 0
318 138 0
318 -6 0
-138 6 -318 0
-319 -241 0
-319 -79 0
241 79 319 0
318 319 -320 0
-318 -319 -320 0
318 -319 320 0
-318 319 320 0
321 320 0
321 -101 0
-320 101 -321 0
-322 -165 0
-322 321 0
165 -321 322 0
-323 -33 0
-323 -81 0
33 81 323 0
-324 -290 0
-324 -90 0
290 90 324 0
-325 -1 0
-325 -324 0
1 324 325 0
326 323 0
326 -325 0
-323 325 -326 0
-327 -252 0
-327 -140 0
252 140 327 0
-328 308 0
-328 327 0
-308 -327 328 0
-88 148 -329 0
88 -148 -329 0
-88 -148 329 0
88 148 329 0
330 -3 0
330 79 0
3 -79 -330 0
331 -97 0
331 -11 0
97 11 -331 0
332 256 0
332 324 0
-256 -324 -332 0
-319 -332 -333 0
319 332 -333 0
-319 332 333 0
319 -332 333 0
-60 333 -334 0
60 -333 -334 0
-60 -333 334 0
60 333 334 0
-331 -334 -335 0
331 334 -335 0
-331 334 335 0
331 -334 335 0
330 -335 -336 0
-330 335 -336 0
330 335 336 0
-330 -335 336 0
-337 -329 0
-337 336 0
329 -336 337 0
-338 -328 0
-338 -337 0
328 337 338 0
-339 -326 0
-339 -338 0
326 338 339 0
-141 168 -340 0
141 -168 -340 0
-141 -168 340 0
141 168 340 0
-341 -340 0
-341 -39 0
340 39 341 0
-342 101 0
-342 -341 0
-101 341 342 0
-343 83 0
-343 -32 0
-83 32 343 0
-344 -218 0
-344 59 0
218 -59 344 0
345 -343 0
345 -344 0
343 344 -345 0
346 -342 0
346 345 0
342 -345 -346 0
347 -243 0
347 145 0
243 -145 -347 0
-348 347 0
-348 -241 0
-347 241 348 0
-349 -346 0
-349 348 0
346 -348 349 0
-350 -47 0
-350 -96 0
47 96 350 0
351 -52 0
351 -91 0
52 91 -351 0
352 350 0
352 351 0
-350 -351 -352 0
-353 -241 0
-353 112 0
241 -112 353 0
354 -170 0
354 -353 0
170 353 -354 0
-355 352 0
-355 -354 0
-352 354 355 0
-356 -194 0
-356 -147 0
194 147 356 0
357 356 0
357 300 0
-356 -300 -357 0
-245 91 -358 0
245 -91 -358 0
-245 -91 358 0
245 91 358 0
358 -26 -359 0
-358 26 -359 0
358 26 359 0
-358 -26 359 0
-361 360 0
-361 16 0
-360 -16 361 0
359 361 -362 0
-359 -361 -362 0
359 -361 362 0
-359 361 362 0
-363 -289 0
-363 -26 0
289 26 363 0
-362 363 -364 0
362 -363 -364 0
-362 -363 364 0
362 363 364 0
365 -26 0
365 -32 0
26 32 -365 0
366 -364 0
366 -365 0
364 365 -366 0
-11 -147 -367 0
11 147 -367 0
-11 147 367 0
11 -147 367 0
-368 -367 0
-368 -224 0
367 224 368 0
369 211 0
369 226 0
-211 -226 -369 0
-370 83 0
-370 -136 0
-83 136 370 0
371 318 0
371 -370 0
-318 370 -371 0
-369 371 -372 0
369 -371 -372 0
-369 -371 372 0
369 371 372 0
-373 -163 0
-373 324 0
163 -324 373 0
374 -201 0
374 208 0
201 -208 -374 0
375 -373 0
375 374 0
373 -374 -375 0
4 9 -376 0
-4 -9 -376 0
4 -9 376 0
-4 9 376 0
-375 376 -377 0
375 -376 -377 0
-375 -376 377 0
375 376 377 0
-378 -372 0
-378 377 0
372 -377 378 0
379 290 0
379 -35 0
-290 35 -379 0
380 -379 0
380 -78 0
379 78 -380 0
381 -96 0
381 -380 0
96 380 -381 0
382 123 0
382 68 0
-123 -68 -382 0
382 38 -383 0
-382 -38 -383 0
382 -38 383 0
-382 38 383 0
381 -383 -384 0
-381 383 -384 0
381 383 384 0
-381 -383 384 0
378 -384 -385 0
-378 384 -385 0
378 384 385 0
-378 -384 385 0
386 368 0
386 385 0
-368 -385 -386 0
366 386 -387 0
-366 -386 -387 0
366 -386 387 0
-366 386 387 0
388 -357 0
388 -387 0
357 387 -388 0
389 -355 0
389 388 0
355 -388 -389 0
-390 349 0
-390 -389 0
-349 389 390 0
391 339 0
391 390 0
-339 -390 -391 0
392 -322 0
392 -391 0
322 391 -392 0
393 -317 0
393 392 0
317 -392 -393 0
-394 280 0
-394 -393 0
-280 393 394 0
-395 -360 0
-395 -221 0
360 221 395 0
-396 274 0
-396 -2 0
-274 2 396 0
-396 343 -397 0
396 -343 -397 0
-396 -343 397 0
396 343 397 0
398 63 0
398 86 0
-63 -86 -398 0
-399 327 0
-399 398 0
-327 -398 399 0
-400 -344 0
-400 -176 0
344 176 400 0
401 -22 0
401 38 0
22 -38 -401 0
-402 -18 0
-402 -401 0
18 401 402 0
403 -400 0
403 402 0
400 -402 -403 0
-404 266 0
-404 403 0
-266 -403 404 0
-405 -399 0
-405 404 0
399 -404 405 0
-406 397 0
-406 -405 0
-397 405 406 0
407 -16 0
407 23 0
16 -23 -407 0
408 -407 0
408 13 0
407 -13 -408 0
-409 408 0
-409 -222 0
-408 222 409 0
-410 -406 0
-410 -409 0
406 409 410 0
-411 395 0
-411 -410 0
-395 410 411 0
-86 25 -412 0
86 -25 -412 0
-86 -25 412 0
86 25 412 0
-413 -412 0
-413 -190 0
412 190 413 0
414 245 0
414 288 0
-245 -288 -414 0
415 -413 0
415 -414 0
413 414 -415 0
411 415 -416 0
-411 -415 -416 0
411 -415 416 0
-411 415 416 0
-417 -76 0
-417 -20 0
76 20 417 0
-418 -96 0
-418 -184 0
96 184 418 0
-176 168 -419 0
176 -168 -419 0
-176 -168 419 0
176 168 419 0
-418 419 -420 0
418 -419 -420 0
-418 -419 420 0
418 419 420 0
-417 420 -421 0
417 -420 -421 0
-417 -420 421 0
417 420 421 0
-42 3 -422 0
42 -3 -422 0
-42 -3 422 0
42 3 422 0
-423 -421 0
-423 422 0
421 -422 423 0
-416 423 -424 0
416 -423 -424 0
-416 -423 424 0
416 423 424 0
425 81 0
425 -4 0
-81 4 -425 0
-426 -425 0
-426 -38 0
425 38 426 0
16 -284 -427 0
-16 284 -427 0
16 284 427 0
-16 -284 427 0
-16 427 -428 0
16 -427 -428 0
-16 -427 428 0
16 427 428 0
16 125 -429 0
-16 -125 -429 0
16 -125 429 0
-16 125 429 0
-430 4 0
-430 -234 0
-4 234 430 0
429 430 -431 0
-429 -430 -431 0
429 -430 431 0
-429 430 431 0
432 431 0
432 136 0
-431 -136 -432 0
428 -432 -433 0
-428 432 -433 0
428 432 433 0
-428 -432 433 0
426 -433 -434 0
-426 433 -434 0
426 433 434 0
-426 -433 434 0
435 -424 0
435 434 0
424 -434 -435 0
436 44 0
436 7 0
-44 -7 -436 0
301 -22 -437 0
-301 22 -437 0
301 22 437 0
-301 -22 437 0
-438 436 0
-438 437 0
-436 -437 438 0
439 13 0
439 -87 0
-13 87 -439 0
72 439 -440 0
-72 -439 -440 0
72 -439 440 0
-72 439 440 0
168 -8 -441 0
-168 8 -441 0
168 8 441 0
-168 -8 441 0
-442 -441 0
-442 -23 0
441 23 442 0
-443 74 0
-443 442 0
-74 -442 443 0
-444 -440 0
-444 443 0
440 -443 444 0
445 -441 0
445 -147 0
441 147 -445 0
-446 -320 0
-446 445 0
320 -445 446 0
447 -444 0
447 446 0
444 -446 -447 0
448 438 0
448 -447 0
-438 447 -448 0
449 219 0
449 301 0
-219 -301 -449 0
-135 449 -450 0
135 -449 -450 0
-135 -449 450 0
135 449 450 0
451 448 0
451 450 0
-448 -450 -451 0
-274 296 -452 0
274 -296 -452 0
-274 -296 452 0
274 296 452 0
-453 320 0
-453 452 0
-320 -452 453 0
454 -90 0
454 5 0
90 -5 -454 0
300 245 -455 0
-300 -245 -455 0
300 -245 455 0
-300 245 455 0
456 -21 0
456 186 0
21 -186 -456 0
457 456 0
457 112 0
-456 -112 -457 0
458 -21 0
458 457 0
21 -457 -458 0
459 -458 0
459 141 0
458 -141 -459 0
-460 455 0
-460 459 0
-455 -459 460 0
-454 -460 -461 0
454 460 -461 0
-454 460 461 0
454 -460 461 0
-221 407 -462 0
221 -407 -462 0
-221 -407 462 0
221 407 462 0
-463 9 0
-463 50 0
-9 -50 463 0
-462 463 -464 0
462 -463 -464 0
-462 -463 464 0
462 463 464 0
465 464 0
465 457 0
-464 -457 -465 0
466 -244 0
466 -465 0
244 465 -466 0
-467 461 0
-467 466 0
-461 -466 467 0
-468 44 0
-468 111 0
-44 -111 468 0
469 -467 0
469 468 0
467 -468 -469 0
418 -62 -470 0
-418 62 -470 0
418 62 470 0
-418 -62 470 0
471 79 0
471 3 0
-79 -3 -471 0
472 471 0
472 82 0
-471 -82 -472 0
472 -53 -473 0
-472 53 -473 0
472 53 473 0
-472 -53 473 0
474 -473 0
474 140 0
473 -140 -474 0
-470 -474 -475 0
470 474 -475 0
-470 474 475 0
470 -474 475 0
-476 469 0
-476 -475 0
-469 475 476 0
-453 -476 -477 0
453 476 -477 0
-453 476 477 0
453 -476 477 0
32 -234 -478 0
-32 234 -478 0
32 234 478 0
-32 -234 478 0
75 -27 -479 0
-75 27 -479 0
75 27 479 0
-75 -27 479 0
480 -479 0
480 -449 0
479 449 -480 0
478 480 -481 0
-478 -480 -481 0
478 -480 481 0
-478 480 481 0
-482 92 0
-482 -105 0
-92 105 482 0
-483 481 0
-483 482 0
-481 -482 483 0
-484 3 0
-484 -168 0
-3 168 484 0
-257 146 -485 0
257 -146 -485 0
-257 -146 485 0
257 146 485 0
221 485 -486 0
-221 -485 -486 0
221 -485 486 0
-221 485 486 0
63 486 -487 0
-63 -486 -487 0
63 -486 487 0
-63 486 487 0
-488 -45 0
-488 42 0
45 -42 488 0
-489 -246 0
-489 -488 0
246 488 489 0
219 489 -490 0
-219 -489 -490 0
219 -489 490 0
-219 489 490 0
492 490 0
492 491 0
-490 -491 -492 0
493 -487 0
493 492 0
487 -492 -493 0
494 -484 0
494 493 0
484 -493 -494 0
-495 95 0
-495 74 0
-95 -74 495 0
496 494 0
496 495 0
-494 -495 -496 0
-483 496 -497 0
483 -496 -497 0
-483 -496 497 0
483 496 497 0
95 241 -498 0
-95 -241 -498 0
95 -241 498 0
-95 241 498 0
-499 -167 0
-499 498 0
167 -498 499 0
500 -187 0
500 -209 0
187 209 -500 0
-501 -165 0
-501 -398 0
165 398 501 0
-14 -112 -502 0
14 112 -502 0
-14 112 502 0
14 -112 502 0
503 502 0
503 103 0
-502 -103 -503 0
-504 -501 0
-504 -503 0
501 503 504 0
-505 -19 0
-505 -54 0
19 54 505 0
506 505 0
506 -73 0
-505 73 -506 0
507 506 0
507 347 0
-506 -347 -507 0
508 -81 0
508 289 0
81 -289 -508 0
509 -507 0
509 -508 0
507 508 -509 0
-510 504 0
-510 509 0
-504 -509 510 0
-500 510 -511 0
500 -510 -511 0
-500 -510 511 0
500 510 511 0
512 289 0
512 -380 0
-289 380 -512 0
-210 512 -513 0
210 -512 -513 0
-210 -512 513 0
210 512 513 0
514 -511 0
514 -513 0
511 513 -514 0
515 499 0
515 514 0
-499 -514 -515 0
-516 497 0
-516 515 0
-497 -515 516 0
-517 -81 0
-517 -245 0
81 245 517 0
-288 -8 -518 0
288 8 -518 0
-288 8 518 0
288 -8 518 0
-519 -157 0
-519 -518 0
157 518 519 0
517 519 -520 0
-517 -519 -520 0
517 -519 520 0
-517 519 520 0
-521 -87 0
-521 -52 0
87 52 521 0
-521 187 -522 0
521 -187 -522 0
-521 -187 522 0
521 187 522 0
523 -254 0
523 -46 0
254 46 -523 0
-522 -523 -524 0
522 523 -524 0
-522 523 524 0
522 -523 524 0
-525 -61 0
-525 -140 0
61 140 525 0
-526 -525 0
-526 -490 0
525 490 526 0
-524 526 -527 0
524 -526 -527 0
-524 -526 527 0
524 526 527 0
528 149 0
528 -78 0
-149 78 -528 0
-529 -528 0
-529 211 0
528 -211 529 0
530 -83 0
530 -40 0
83 40 -530 0
43 -39 -531 0
-43 39 -531 0
43 39 531 0
-43 -39 531 0
-532 86 0
-532 502 0
-86 -502 532 0
-533 -532 0
-533 16 0
532 -16 533 0
-534 222 0
-534 533 0
-222 -533 534 0
-535 69 0
-535 33 0
-69 -33 535 0
-535 473 -536 0
535 -473 -536 0
-535 -473 536 0
535 473 536 0
537 534 0
537 536 0
-534 -536 -537 0
538 -531 0
538 -537 0
531 537 -538 0
539 -530 0
539 -538 0
530 538 -539 0
529 -539 -540 0
-529 539 -540 0
529 539 540 0
-529 -539 540 0
-541 -4 0
-541 28 0
4 -28 541 0
-542 -98 0
-542 541 0
98 -541 542 0
540 -542 -543 0
-540 542 -543 0
540 542 543 0
-540 -542 543 0
-544 -527 0
-544 -543 0
527 543 544 0
-520 544 -545 0
520 -544 -545 0
-520 -544 545 0
520 544 545 0
546 516 0
546 545 0
-516 -545 -546 0
-547 477 0
-547 -546 0
-477 546 547 0
176 7 -548 0
-176 -7 -548 0
176 -7 548 0
-176 7 548 0
549 -548 0
549 73 0
548 -73 -549 0
550 -242 0
550 -93 0
242 93 -550 0
551 549 0
551 -550 0
-549 550 -551 0
552 -36 0
552 1 0
36 -1 -552 0
-553 398 0
-553 552 0
-398 -552 553 0
554 -553 0
554 46 0
553 -46 -554 0
-457 -201 -555 0
457 201 -555 0
-457 201 555 0
457 -201 555 0
408 76 -556 0
-408 -76 -556 0
408 -76 556 0
-408 76 556 0
557 -555 0
557 -556 0
555 556 -557 0
-558 -554 0
-558 -557 0
554 557 558 0
-559 137 0
-559 113 0
-137 -113 559 0
-308 559 -560 0
308 -559 -560 0
-308 -559 560 0
308 559 560 0
558 -560 -561 0
-558 560 -561 0
558 560 561 0
-558 -560 561 0
551 -561 -562 0
-551 561 -562 0
551 561 562 0
-551 -561 562 0
563 -296 0
563 -211 0
296 211 -563 0
-564 254 0
-564 -356 0
-254 356 564 0
-565 -7 0
-565 78 0
7 -78 565 0
-566 -351 0
-566 -565 0
351 565 566 0
567 -379 0
567 566 0
379 -566 -567 0
568 565 0
568 -34 0
-565 34 -568 0
569 567 0
569 568 0
-567 -568 -569 0
-570 -216 0
-570 284 0
216 -284 570 0
-571 157 0
-571 -238 0
-157 238 571 0
570 -571 -572 0
-570 571 -572 0
570 571 572 0
-570 -571 572 0
-569 572 -573 0
569 -572 -573 0
-569 -572 573 0
569 572 573 0
-574 -564 0
-574 573 0
564 -573 574 0
575 -563 0
575 574 0
563 -574 -575 0
306 -233 -576 0
-306 233 -576 0
306 233 576 0
-306 -233 576 0
-43 425 -577 0
43 -425 -577 0
-43 -425 577 0
43 425 577 0
-578 -254 0
-578 -21 0
254 21 578 0
579 577 0
579 -578 0
-577 578 -579 0
-580 -488 0
-580 148 0
488 -148 580 0
-581 -579 0
-581 -580 0
579 580 581 0
-576 -581 -582 0
576 581 -582 0
-576 581 582 0
576 -581 582 0
-28 111 -583 0
28 -111 -583 0
-28 -111 583 0
28 111 583 0
-584 217 0
-584 217 0
-217 584 0
-584 -32 -585 0
584 32 -585 0
-584 32 585 0
584 -32 585 0
586 -585 0
586 333 0
585 -333 -586 0
587 583 0
587 586 0
-583 -586 -587 0
-588 -582 0
-588 -587 0
582 587 588 0
-589 -575 0
-589 -588 0
575 588 589 0
-562 589 -590 0
562 -589 -590 0
-562 -589 590 0
562 589 590 0
-591 -547 0
-591 -590 0
547 590 591 0
-451 -591 -592 0
451 591 -592 0
-451 591 592 0
451 -591 592 0
-593 -435 0
-593 592 0
435 -592 593 0
594 -394 0
594 593 0
394 -593 -594 0
-401 163 67 -211 0
474 1 228 387 0
250 58 567 0
-203 425 520 -319 -538 0
126 286 -261 0
20 327 426 -385 0
458 -19 -179 0
333 180 568 -219 0
488 -101 158 -68 0
2 3 -116 -383 300 0
565 342 -431 -527 0
-350 -437 -491 -85 0
-49 579 540 0
138 -20 -215 0
567 -458 -55 -447 0
-283 291 109 0
377 -154 343 468 0
-117 -85 389 -82 0
47 -346 -411 0
578 429 156 277 0
70 71 -517 131 486 0
309 -40 -184 215 0
-497 -387 -130 389 0
-440 548 -501 -536 0
181 37 -341 -337 0
488 410 -330 -152 359 0
-82 380 -105 204 0
268 397 149 271 0
458 482 -299 372 0
224 -350 560 0
146 -87 -153 0
367 -255 -394 188 0
-230 -81 -159 272 0
477 229 263 0
84 -375 -183 563 92 0
179 97 -456 -136 533 0
-367 -384 470 -139 -589 0
-368 -48 -130 457 -32 0
147 -56 -397 0
-377 145 540 0
103 -443 527 -58 0
63 342 450 -248 0
581 -206 432 0
-355 -179 21 131 0
-520 -542 -584 -423 -166 0
-281 -121 558 -526 -61 0
178 244 327 -33 403 0
219 -100 -511 0
499 -218 -61 -284 0
429 423 -1 0
-161 472 336 126 297 0
135 159 -13 -181 0
43 -461 305 0
-555 262 37 0
49 -40 33 200 -566 0
-243 280 116 579 0
424 571 -56 -161 -415 0
-495 57 -206 -33 0
96 470 -503 336 0
136 310 201 73 0
-204 281 211 161 -408 0
-200 182 -287 0
-330 -508 -515 492 0
410 272 -439 542 -230 0
25 -75 236 0
363 263 -384 -211 0
-329 103 -516 0
592 -582 -263 -228 -421 0
-190 -426 289 0
515 367 22 49 305 0
-141 -132 335 84 0
299 -227 -346 0
-407 348 245 -403 -305 0
-343 -100 180 0
149 -1 284 388 -330 0
372 366 -384 -576 0
141 -358 -343 402 69 0
299 -259 -51 -378 0
143 69 394 -237 -298 0
54 -120 159 0
486 -454 360 -258 0
46 -316 -37 -95 16 0
-568 -127 71 -73 -285 0
165 -381 125 451 321 0
-144 -184 -53 -66 -347 0
-119 341 -303 0
-117 -496 432 -540 388 0
-394 203 -74 224 426 0
-209 -359 -161 385 171 0
450 90 -115 0
86 234 457 269 -592 0
323 -231 -61 -141 0
467 255 -110 -193 0
231 516 -477 0
292 -111 -113 0
163 571 -35 393 0
285 554 504 0
-203 -197 562 442 0
-197 158 -529 415 1 0
-436 482 -161 -440 0
87 -438 -573 0
21 -586 -461 0
-542 -195 244 119 0
-276 173 424 14 0
525 -362 -444 200 -139 0
319 -169 -85 0
23 -455 231 0
501 260 -251 417 -88 0
-11 14 62 0
591 -533 20 0
-397 -94 393 127 -476 0
544 -461 -382 320 424 0
-148 -24 94 -345 112 0
-430 327 241 -206 469 0
-104 564 -585 119 -318 0
-546 -37 527 0
18 -231 -429 594 -583 0
-589 142 -265 0
49 -236 -358 -171 0
-512 -546 -74 0
-223 581 -110 -313 -257 0
163 242 172 -489 0
593 436 -558 0
23 -467 -218 42 140 0
-291 102 584 -412 125 0
80 42 289 -594 57 0
-18 32 -500 -228 -145 0
-117 -467 -143 503 -509 0
-347 -486 -193 0
64 465 -488 0
325 -586 -202 -415 263 0
-289 -376 -450 18 -187 0
221 378 -81 524 0
594 0
